$molecule
0 1
xxxxx
$end
$rem
SYM_IGNORE TRUE
METHOD ADC(2)
BASIS cc-pVDZ
AUX_BASIS rimp2-cc-pVDZ
SOLVENT_METHOD PCM
PCM_PRINT 1
JOBTYPE SP
SCF_ALGORITHM DIIS
MAX_SCF_CYCLES 512
EE_SINGLETS 4
EE_TRIPLETS 4
CC_SYMMETRY FALSE
ADC_PROP_ES TRUE
ADC_DAVIDSON_CONV 4
ADC_DAVIDSON_MAXSUBSPACE 12
ADC_DAVIDSON_MAXITER 1024
ADC_NGUESS_SINGLES 5
ADC_NGUESS_DOUBLES 1
$end
$pcm
NONEQUILIBRIUM TRUE
$end
$solvent
DIELECTRIC 4.0
DIELECTRIC_INFI 3.24
$end


@@@


$molecule
READ
$end

$rem
SYM_IGNORE TRUE
METHOD ADC(2)
BASIS cc-pVDZ
AUX_BASIS rimp2-cc-pVDZ
SOLVENT_METHOD PCM
PCM_PRINT 1
JOBTYPE SP
SCF_ALGORITHM DIIS
MAX_SCF_CYCLES 512
EE_SINGLETS 0
EE_TRIPLETS 0
CC_SYMMETRY FALSE
ADC_PROP_ES TRUE
ADC_DAVIDSON_CONV 4
ADC_DAVIDSON_MAXSUBSPACE 12
ADC_DAVIDSON_MAXITER 1024
ADC_NGUESS_SINGLES 5
ADC_NGUESS_DOUBLES 1
$end

$pcm
EQSOLV 15
EQSTATE 0
EQS_CONV 4
THEORY IEFPCM
NONEQUILIBRIUM TRUE
$end

$solvent
DIELECTRIC 4.0
DIELECTRIC_INFI 3.24
$end


@@@


$molecule
READ
$end

$rem
SYM_IGNORE TRUE
METHOD ADC(2)
BASIS cc-pVDZ
AUX_BASIS rimp2-cc-pVDZ
SOLVENT_METHOD PCM
PCM_PRINT 1
JOBTYPE SP
SCF_ALGORITHM DIIS
MAX_SCF_CYCLES 512
EE_SINGLETS 4
EE_TRIPLETS 4
CC_SYMMETRY FALSE
STATE_ANALYSIS TRUE
ADC_PROP_ES TRUE
ADC_DAVIDSON_CONV 4
ADC_DAVIDSON_MAXSUBSPACE 12
ADC_DAVIDSON_MAXITER 1024
ADC_NGUESS_SINGLES 5
ADC_NGUESS_DOUBLES 1
$end

$pcm
EQSOLV TRUE
EQSTATE 0
THEORY IEFPCM
NONEQUILIBRIUM TRUE
$end

$solvent
DIELECTRIC 4.0
DIELECTRIC_INFI 3.24
$end
