$molecule
0 1
xxxxx
$end
$rem
SYM_IGNORE TRUE
METHOD ADC(3)
BASIS cc-pVDZ
AUX_BASIS rimp2-cc-pVDZ
JOBTYPE SP
SCF_ALGORITHM DIIS
MAX_SCF_CYCLES 512
EE_SINGLETS 4
EE_TRIPLETS 4
CC_SYMMETRY FALSE
STATE_ANALYSIS TRUE
ADC_DAVIDSON_CONV 4
ADC_DAVIDSON_MAXSUBSPACE 16
ADC_DAVIDSON_MAXITER 1024
ADC_NGUESS_SINGLES 5
ADC_NGUESS_DOUBLES 1
$end
