$molecule
0 1
xxxxx
$end
$rem
SYM_IGNORE TRUE
METHOD ADC(2)
BASIS cc-pVDZ
AUX_BASIS rimp2-cc-pVDZ
JOBTYPE SP
SCF_ALGORITHM DIIS
MAX_SCF_CYCLES 512
EE_SINGLETS 4
EE_TRIPLETS 4
CC_SYMMETRY FALSE
STATE_ANALYSIS TRUE
ADC_DAVIDSON_CONV 1
ADC_DAVIDSON_MAXSUBSPACE 12
ADC_DAVIDSON_MAXITER 16
ADC_NGUESS_SINGLES 5
ADC_NGUESS_DOUBLES 1
ADC_DO_DIIS TRUE
ADC_DIIS_ECONV 4
ADC_DIIS_RCONV 4
ADC_DIIS_SIZE 24
ADC_DIIS_START 10
ADC_DIIS_MAXITER 512
$end
