$molecule
0 1
xxxxx
$end
$rem
SYM_IGNORE TRUE
METHOD EOM-CCSD
BASIS cc-pVDZ
AUX_BASIS rimp2-cc-pVDZ
JOBTYPE SP
SCF_ALGORITHM DIIS
MAX_SCF_CYCLES 512
EE_SINGLETS 4
EE_TRIPLETS 4
CC_SYMMETRY FALSE
STATE_ANALYSIS TRUE
CC_EOM_PROP TRUE
CC_TRANS_PROP TRUE
CC_CONVERGENCE 5
EOM_NGUESS_SINGLES 5
EOM_NGUESS_DOUBLES 1
EOM_DAVIDSON_CONVERGENCE 4
EOM_DAVIDSON_THRESHOLD 00102
EOM_DAVIDSON_MAX_ITER 32
EOM_DAVIDSON_MAXVECTORS 240
$end
